50, 633
15, 10
43, 38
49, 44
9, 4
55, 50
47, 42
33, 28
9, 4
45, 40
25, 20
23, 18
35, 30
7, 2
43, 38
7, 2
51, 46
35, 30
23, 18
45, 40
27, 22
23, 18
33, 28
53, 48
53, 48
11, 6
23, 18
7, 2
25, 20
31, 26
41, 36
53, 48
25, 20
35, 30
17, 12
17, 12
39, 34
23, 18
43, 38
35, 30
47, 42
33, 28
9, 4
21, 16
25, 20
39, 34
13, 8
7, 2
51, 46
33, 28
23, 18
